objective value:                            -48153311
t_x2992                                             1 	(obj:-450919)
t_x1                                                1 	(obj:143343)
t_x42                                               1 	(obj:-148968)
t_x83                                               1 	(obj:-902796)
t_x124                                              1 	(obj:-1984440)
t_x165                                              1 	(obj:-424674)
t_x206                                              1 	(obj:-454052)
t_x247                                              1 	(obj:-776848)
t_x288                                              1 	(obj:-111398)
t_x329                                              1 	(obj:-259555)
t_x370                                              1 	(obj:-197776)
t_x411                                              1 	(obj:-562523)
t_x452                                              1 	(obj:428343)
t_x493                                              1 	(obj:-254098)
t_x534                                              1 	(obj:-607020)
t_x575                                              1 	(obj:-235596)
t_x616                                              1 	(obj:-713185)
t_x657                                              1 	(obj:-203473)
t_x698                                              1 	(obj:-539014)
t_x739                                              1 	(obj:21910)
t_x780                                              1 	(obj:-854203)
t_x821                                              1 	(obj:-2322960)
t_x862                                              1 	(obj:-223438)
t_x903                                              1 	(obj:-989642)
t_x944                                              1 	(obj:210305)
t_x985                                              1 	(obj:-46399)
t_x1026                                             1 	(obj:13443)
t_x1067                                             1 	(obj:-718635)
t_x1108                                             1 	(obj:22584)
t_x1149                                             1 	(obj:235356)
t_x1190                                             1 	(obj:541210)
t_x1231                                             1 	(obj:15561)
t_x1272                                             1 	(obj:-7216300)
t_x1313                                             1 	(obj:-387271)
t_x1354                                             1 	(obj:-1306780)
t_x1395                                             1 	(obj:-815654)
t_x1436                                             1 	(obj:-1538500)
t_x1477                                             1 	(obj:-93109)
t_x1518                                             1 	(obj:-152131)
t_x1559                                             1 	(obj:-80573)
t_x1600                                             1 	(obj:-323070)
t_x1641                                             1 	(obj:-1257750)
t_x1682                                             1 	(obj:-6933360)
t_x1723                                             1 	(obj:-64307)
t_x1764                                             1 	(obj:-415651)
t_x1805                                             1 	(obj:-1063790)
t_x1846                                             1 	(obj:-267486)
t_x1887                                             1 	(obj:-522899)
t_x1965                                             1 	(obj:-290218)
t_x1969                                             1 	(obj:-315767)
t_x2010                                             1 	(obj:-51021)
t_x2051                                             1 	(obj:-1751850)
t_x2129                                             1 	(obj:-546477)
t_x2170                                             1 	(obj:-1115480)
t_x2211                                             1 	(obj:-825182)
t_x2252                                             1 	(obj:-1148900)
t_x2256                                             1 	(obj:-725854)
t_x2334                                             1 	(obj:-1124710)
t_x2338                                             1 	(obj:-2012400)
t_x2379                                             1 	(obj:47836)
t_x2420                                             1 	(obj:-1265420)
t_x2461                                             1 	(obj:347496)
t_x2539                                             1 	(obj:1366710)
t_x2582                                             1 	(obj:-50891)
t_x2584                                             1 	(obj:-1067140)
t_x2625                                             1 	(obj:-1427380)
t_x2666                                             1 	(obj:-384523)
t_x2707                                             1 	(obj:-531009)
t_x2748                                             1 	(obj:-84291)
t_x2789                                             1 	(obj:-65308)
t_x2830                                             1 	(obj:-36386)
t_x2871                                             1 	(obj:-93037)
t_x2912                                             1 	(obj:-213921)
